# Solution for model r3_t9_m2_3 Batch Number: 1
# Finished Task: 7 / 9
# Makespan: 431.0, Total Distance: 243.0, Total Time: 0.3534
# R O S F Batch
0 0 5 0.0 0.0 -1
1 1 -1 0.0 0.0 -1
2 2 8 0.0 0.0 -1
3 2 9 357.0 389.0 0
4 -1 -1 -1.0 -1.0 0
5 0 6 150.0 180.0 0
6 0 11 224.0 254.0 0
7 -1 -1 -1.0 -1.0 0
8 2 10 95.0 122.0 0
9 2 -1 401.0 431.0 0
10 2 3 244.0 267.0 0
11 0 -1 389.0 417.0 0
